data;

 param time := 15 ;

 param Warmup := 2 ;

 set SPECS := sp1  sp2  sp3  sp4   ; 

 set INPUTS := f1  f2  f3  f4  f5  f6  f7  f8   ; 

 param:    POOLS:   fixcost  :=
 	 pl1 	 144
 	 pl2 	 138
 	 pl3 	 127
 	 pl4 	 116
 	 pl5 	 120
 	 pl6 	 149
 	 pl7 	 125
 	 pl8 	 133
 	 pl9 	 120
 	 pl10 	 130 ; 

 param:   BLENDS:   revenue   initialinv  :=
  	 B1  	  40 		 31
  	 B2  	  43 		 33
  	 B3  	  41 		 20
  	 B4  	  44 		 33
  	 B5  	  39 		 39 ; 

 param 			 prodrate: 
		1 	 2 	 3 	 4 	 5 	 6 	 7 	 8 	 9 	 10 	 11 	 12 	 13 	 14 	 15 	  	 := 
 f1 		 33 	  20 	  33 	  26 	  21 	  34 	  17 	  21 	  12 	  23 	  22 	  16 	  18 	  12 	  10 	 
 f2 		 22 	  31 	  33 	  17 	  29 	  28 	  13 	  10 	  22 	  10 	  17 	  11 	  16 	  13 	  18 	 
 f3 		 15 	  34 	  32 	  31 	  34 	  19 	  17 	  19 	  12 	  15 	  11 	  13 	  17 	  10 	  15 	 
 f4 		 25 	  26 	  29 	  34 	  33 	  15 	  20 	  12 	  21 	  13 	  22 	  13 	  22 	  14 	  21 	 
 f5 		 24 	  16 	  26 	  32 	  27 	  33 	  17 	  20 	  22 	  20 	  13 	  23 	  15 	  18 	  16 	 
 f6 		 19 	  21 	  29 	  23 	  34 	  15 	  11 	  20 	  13 	  15 	  10 	  14 	  12 	  19 	  10 	 
 f7 		 17 	  30 	  16 	  23 	  29 	  19 	  20 	  21 	  11 	  16 	  13 	  19 	  19 	  22 	  16 	 
 f8 		 26 	  25 	  15 	  17 	  23 	  22 	  16 	  13 	  18 	  20 	  16 	  11 	  17 	  18 	  23 	  ; 

 param 		 demand: 
		1 	 2 	 3 	 4 	 5 	 6 	 7 	 8 	 9 	 10 	 11 	 12 	 13 	 14 	 15 	  	 := 
 B1 		 15 	  16 	  11 	  18 	  16 	  18 	  29 	  22 	  21 	  20 	  21 	  21 	  23 	  25 	  22 	 
 B2 		 15 	  18 	  16 	  13 	  10 	  16 	  20 	  21 	  19 	  23 	  27 	  24 	  24 	  18 	  25 	 
 B3 		 11 	  9 	  18 	  17 	  10 	  19 	  28 	  21 	  19 	  25 	  20 	  28 	  21 	  19 	  23 	 
 B4 		 15 	  18 	  9 	  15 	  12 	  18 	  18 	  19 	  29 	  25 	  22 	  23 	  18 	  19 	  25 	 
 B5 		 19 	  20 	  15 	  15 	  9 	  18 	  21 	  25 	  19 	  24 	  19 	  25 	  27 	  27 	  19 	  ; 

 param: 	 CONTRACTPOOLS: 	 duration  :=
 		 pl1 		 5
 		 pl2 		 8
 		 pl3 		 8
 		 pl4 		 5
 		 pl5 		 8
 		 pl6 		 5
 		 pl7 		 2 ; 

 param:    capacity := 
 pl1 		 55.5
 pl2 		 63
 pl3 		 51
 pl4 		 63
 pl5 		 42
 pl6 		 51
 pl7 		 51
 pl8 		 60
 pl9 		 75
 pl10 		 80
 f1 		 51
 f2 		 100
 f3 		 32
 f4 		 40
 f5 		 32
 f6 		 51
 f7 		 51
 f8 		 51
 B1 		 70
 B2 		 90
 B3 		 90
 B4 		 90
 B5 		 73 ; 

 param 		 speclevel:
 		sp1 	 sp2 	 sp3 	 sp4 	  := 
 f1 		 0.20 	 0.42 	 0.58 	 0.41 	 
 f2 		 0.65 	 0.31 	 0.74 	 0.39 	 
 f3 		 0.39 	 0.47 	 0.42 	 0.23 	 
 f4 		 0.47 	 0.29 	 0.63 	 0.30 	 
 f5 		 0.20 	 0.47 	 0.36 	 0.29 	 
 f6 		 0.52 	 0.37 	 0.21 	 0.27 	 
 f7 		 0.71 	 0.23 	 0.62 	 0.69 	 
 f8 		 0.35 	 0.57 	 0.53 	 0.63 	  ; 

 param 		 minspec:
 		sp1 	 sp2 	 sp3 	 sp4 	  := 
 B1 		 0.25 	 0.32 	 0.50 	 0.25 	 
 B2 		 0.35 	 0.27 	 0.38 	 0.23 	 
 B3 		 0.25 	 0.29 	 0.49 	 0.34 	 
 B4 		 0.34 	 0.35 	 0.31 	 0.29 	 
 B5 		 0.22 	 0.44 	 0.43 	 0.38 	  ; 

 param 		 maxspec:
 		sp1 	 sp2 	 sp3 	 sp4 	  := 
 B1 		 0.48 	 0.42 	 0.65 	 0.42 	 
 B2 		 0.70 	 0.52 	 0.78 	 0.46 	 
 B3 		 0.58 	 0.42 	 0.65 	 0.61 	 
 B4 		 0.44 	 0.43 	 0.42 	 0.37 	 
 B5 		 0.38 	 0.62 	 0.58 	 0.68 	  ; 

 param:   ARCS: 		 flowlbd 	 varcost  :=
  		 [f1,pl1] 		 9 	 12
  		 [f1,pl2] 		 5 	 13
  		 [f1,pl3] 		 9 	 13
  		 [f1,pl5] 		 5 	 15
  		 [f1,pl7] 		 9 	 15
  		 [f2,pl2] 		 8 	 12
  		 [f2,pl3] 		 5 	 14
  		 [f2,pl4] 		 5 	 11
  		 [f2,pl5] 		 8 	 13
  		 [f2,pl6] 		 9 	 12
  		 [f2,pl7] 		 7 	 17
  		 [f3,pl4] 		 7 	 16
  		 [f3,pl5] 		 9 	 10
  		 [f4,pl1] 		 8 	 17
  		 [f4,pl3] 		 9 	 10
  		 [f4,pl4] 		 6 	 11
  		 [f4,pl5] 		 8 	 11
  		 [f4,pl6] 		 5 	 17
  		 [f5,pl1] 		 7 	 13
  		 [f5,pl2] 		 9 	 9
  		 [f5,pl4] 		 8 	 10
  		 [f5,pl5] 		 7 	 9
  		 [f5,pl6] 		 5 	 16
  		 [f5,pl7] 		 5 	 11
  		 [f6,pl1] 		 8 	 10
  		 [f6,pl5] 		 9 	 17
  		 [f6,pl6] 		 8 	 15
  		 [f6,pl7] 		 6 	 14
  		 [f7,pl1] 		 9 	 15
  		 [f7,pl2] 		 7 	 11
  		 [f7,pl4] 		 7 	 14
  		 [f7,pl6] 		 6 	 15
  		 [f8,pl3] 		 9 	 14
  		 [f8,pl5] 		 6 	 10
  		 [f8,pl7] 		 9 	 11
 		 [pl1,pl8] 		 5 	 7
 		 [pl1,pl9] 		 3 	 9
 		 [pl2,pl8] 		 2 	 9
 		 [pl2,pl9] 		 4 	 8
 		 [pl3,pl10] 		 5 	 9
 		 [pl4,pl8] 		 2 	 7
 		 [pl4,pl9] 		 4 	 11
 		 [pl4,pl10] 		 4 	 5
 		 [pl5,pl9] 		 4 	 6
 		 [pl5,pl10] 		 4 	 8
 		 [pl6,pl8] 		 5 	 7
 		 [pl6,pl9] 		 5 	 6
 		 [pl6,pl10] 		 5 	 5
 		 [pl7,pl9] 		 3 	 5
 		 [pl8,pl1] 		 5 	 7
 		 [pl8,pl2] 		 2 	 9
 		 [pl8,pl4] 		 2 	 7
 		 [pl8,pl6] 		 5 	 7
 		 [pl9,pl1] 		 3 	 9
 		 [pl9,pl2] 		 4 	 8
 		 [pl9,pl4] 		 4 	 11
 		 [pl9,pl5] 		 4 	 6
 		 [pl9,pl6] 		 5 	 6
 		 [pl9,pl7] 		 3 	 5
 		 [pl10,pl3] 		 5 	 9
 		 [pl10,pl4] 		 4 	 5
 		 [pl10,pl5] 		 4 	 8
 		 [pl10,pl6] 		 5 	 5
  		 [pl1,B4] 		 6 	 13
  		 [pl2,B3] 		 8 	 11
  		 [pl3,B1] 		 9 	 10
  		 [pl3,B3] 		 9 	 11
  		 [pl3,B4] 		 9 	 10
  		 [pl4,B1] 		 7 	 15
  		 [pl4,B3] 		 9 	 14
  		 [pl5,B2] 		 9 	 9
  		 [pl5,B3] 		 7 	 10
  		 [pl5,B4] 		 8 	 17
  		 [pl6,B2] 		 6 	 16
  		 [pl7,B1] 		 9 	 15
  		 [pl7,B5] 		 7 	 11
  		 [pl8,B2] 		 5 	 10
  		 [pl8,B4] 		 7 	 10
  		 [pl8,B5] 		 5 	 12
  		 [pl9,B1] 		 9 	 14
  		 [pl9,B3] 		 6 	 17
  		 [pl9,B4] 		 9 	 13
  		 [pl9,B5] 		 6 	 12
  		 [pl10,B1] 		 7 	 17
  		 [pl10,B2] 		 7 	 11
  		 [pl10,B3] 		 9 	 11
  		 [pl10,B5] 		 9 	 11 ; 



